9
0 502 245 564 357 714 336 376 748
502 0 704 731 814 989 747 830 750
245 704 0 455 114 517 112 132 692
564 731 455 0 468 277 366 465 256
357 814 114 468 0 465 106 19 719
714 989 517 277 465 0 405 452 465
336 747 112 366 106 405 0 109 615
376 830 132 465 19 452 109 0 718
748 750 692 256 719 465 615 718 0
